22
Lattice="24.331091423612072 0.0 0.0 0.0 20.35007283179534 0.0 0.0 0.0 19.00453406301358" Properties=species:S:1:pos:R:3:forces:R:3:energies:R:1 energy=-131.21188354492188 stress="1.0460693422587042e-09 -4.942232734173047e-10 3.906015511034866e-10 -4.942232734173047e-10 2.36013070198382e-10 -5.6478134669024627e-11 3.906015511034866e-10 -5.6478134669024627e-11 -3.895001265963316e-10" free_energy=-131.21188354492188 pbc="F F F"
C       15.40227192      10.25393066       9.09774799       0.00637878       0.00981666      -0.01424123      -9.32599390
C       14.42632662      10.27304561      10.28068203       0.00685687       0.00294530       0.00220740      -9.51836574
C       12.94750897      10.23451628       9.93722365       0.00223157      -0.02310313      -0.00879240      -9.02502084
C       12.25918359      11.41006508       9.61518666       0.03518666      -0.01069579       0.01333146      -8.87831783
C       10.89440099      11.39380364       9.34746585       0.00351760      -0.00462884      -0.02769380      -8.92804891
C       10.21700035      10.16644219       9.37141264      -0.00645828       0.01089393      -0.00715974      -8.34667610
C       10.90449621       8.96589021       9.60038988      -0.00579378      -0.00859237      -0.02022138      -8.93120909
C       12.26070136       9.01728990       9.90666490      -0.02256249      -0.01101375       0.01933843      -8.88710880
S        8.41410128      10.20142661       9.70364671       0.02013469       0.01346125      -0.00843793      -4.77004509
O        8.34595232      11.44655815      10.50258846       0.00069907      -0.02116561      -0.01113731      -6.21011114
O        8.30451816       9.02395992      10.59245313       0.01933470       0.01723015      -0.00206131      -6.21387815
O        7.69093017      10.17089604       8.45639019       0.01099318      -0.00696797       0.02666068      -6.40856284
H       16.43078317      10.29234355       9.46933957       0.01008429      -0.00243928      -0.01809446      -3.66982611
H       15.25286179      11.11452571       8.43835801      -0.01423183       0.01865808      -0.01060025      -3.65062930
H       15.29668062       9.34263002       8.49987730      -0.01566669      -0.00749257       0.00687444      -3.65131108
H       14.61659525      11.18329680      10.86345578      -0.00510150      -0.00131707       0.02029020      -3.56879804
H       14.65391687       9.41310275      10.92223303      -0.02468255       0.00906923       0.02200276      -3.57431003
H       12.80570133      12.35671730       9.58772341       0.00078578       0.01190713       0.00831988      -3.71453877
H       10.35251452      12.30462657       9.10226309       0.00300105      -0.00843656       0.00567738      -3.66813663
H       10.37647426       8.01800217       9.53231671      -0.02224086      -0.00080603       0.00954360      -3.67278932
H       12.79510154       8.09053804      10.13368702       0.02773245       0.00805652      -0.01905763      -3.71472719
Na       9.86097159      10.29000742      11.91055670      -0.03019840       0.00462068       0.01325087      -2.88349609
