22
Lattice="24.331091423612072 0.0 0.0 0.0 20.35007283179534 0.0 0.0 0.0 19.00453406301358" Properties=species:S:1:pos:R:3 pbc="F F F"
C       15.25357408      10.20240467       9.07920820
C       14.48573969      10.21726691      10.39209458
C       12.99586509      10.19223667      10.16996972
C       12.27948860      11.39165425      10.02945146
C       10.90132738      11.37068872       9.80759502
C       10.23867935      10.14504060       9.71391344
C       10.93508230       8.94284517       9.85477300
C       12.31317404       8.96882112      10.07653192
S        8.44464441      10.11509876       9.45658046
O        8.00000000      11.35342442      10.09200878
O        8.03424117       8.89050548      10.13985798
O        8.35240277      10.08551833       8.00000000
H       16.33109142      10.22111751       9.27082586
H       15.00341048      11.07245449       8.46267403
H       15.02802826       9.30241890       8.49711083
H       14.75784826      11.10861478      10.97046551
H       14.78219530       9.35698242      11.00453406
H       12.78748672      12.35007283      10.09296440
H       10.33871181      12.29494276       9.70434307
H       10.39842542       8.00000000       9.78780255
H       12.84757771       8.02808124      10.17694909
Na      10.00000000      11.35342442      10.09200878
